c nIsolatedPIs 48
c maxPI 16
p cnf 47 94
c gate 17 4 12 0
4 -17 0
12 -17 0
-4 -12 17 0
c gate 18 -4 -12 0
-4 -18 0
-12 -18 0
4 12 18 0
c gate 19 3 11 0
3 -19 0
11 -19 0
-3 -11 19 0
c gate 20 -18 19 0
-18 -20 0
19 -20 0
18 -19 20 0
c gate 21 -17 -20 0
-17 -21 0
-20 -21 0
17 20 21 0
c gate 22 1 9 0
1 -22 0
9 -22 0
-1 -9 22 0
c gate 23 2 10 0
2 -23 0
10 -23 0
-2 -10 23 0
c gate 24 -22 -23 0
-22 -24 0
-23 -24 0
22 23 24 0
c gate 25 -2 -10 0
-2 -25 0
-10 -25 0
2 10 25 0
c gate 26 -3 -11 0
-3 -26 0
-11 -26 0
3 11 26 0
c gate 27 -18 -26 0
-18 -27 0
-26 -27 0
18 26 27 0
c gate 28 -25 27 0
-25 -28 0
27 -28 0
25 -27 28 0
c gate 29 21 28 0
21 -29 0
28 -29 0
-21 -28 29 0
c gate 30 -24 29 0
-24 -30 0
29 -30 0
24 -29 30 0
c gate 31 21 -30 0
21 -31 0
-30 -31 0
-21 30 31 0
c gate 32 6 14 0
6 -32 0
14 -32 0
-6 -14 32 0
c gate 33 5 13 0
5 -33 0
13 -33 0
-5 -13 33 0
c gate 34 -32 -33 0
-32 -34 0
-33 -34 0
32 33 34 0
c gate 35 -5 -13 0
-5 -35 0
-13 -35 0
5 13 35 0
c gate 36 -8 -16 0
-8 -36 0
-16 -36 0
8 16 36 0
c gate 37 -35 -36 0
-35 -37 0
-36 -37 0
35 36 37 0
c gate 38 34 37 0
34 -38 0
37 -38 0
-34 -37 38 0
c gate 39 -7 -15 0
-7 -39 0
-15 -39 0
7 15 39 0
c gate 40 -6 -14 0
-6 -40 0
-14 -40 0
6 14 40 0
c gate 41 -39 -40 0
-39 -41 0
-40 -41 0
39 40 41 0
c gate 42 8 16 0
8 -42 0
16 -42 0
-8 -16 42 0
c gate 43 7 15 0
7 -43 0
15 -43 0
-7 -15 43 0
c gate 44 -42 -43 0
-42 -44 0
-43 -44 0
42 43 44 0
c gate 45 41 44 0
41 -45 0
44 -45 0
-41 -44 45 0
c gate 46 38 45 0
38 -46 0
45 -46 0
-38 -45 46 0
c gate 47 -31 46 0
-31 -47 0
46 -47 0
31 -46 47 0
c PO
47 0
